--Link1--
%chk=molecule
#HF/6-31G* SCF=tight Test Pop=MK iop(6/33=2) iop(6/42=6) opt

remark line goes here

0   1
    P     -3.0936          2.0252         -0.5819     
    O     -1.8516          1.4372         -1.4069     
    P     -2.0336         -0.1068         -1.7939     
    O     -0.6086         -0.7528         -2.1309     
    C      0.3134         -1.2938         -1.1749     
    C      1.4984         -1.9138         -1.9509     
    C      2.3364         -0.8488         -2.7149     
    C      1.8894         -1.0438         -4.1769     
    C      1.5814         -2.5548         -4.1929     
    N      0.7404         -2.9738         -5.3359     
    C      0.8764         -4.2798         -5.8639     
    C      0.1074         -4.6538         -6.9679     
    C     -0.9276         -3.8258         -7.4109     
    C     -1.2856         -2.6878         -6.6749     
    C     -2.4176         -1.7498         -7.0619     
    N     -2.9836         -1.7578         -8.2909     
    O     -2.8056         -0.9578         -6.2169     
    C     -0.5536         -2.4178         -5.5109     
    O      0.9044         -2.7618         -2.9499     
    O      2.9104         -0.7228         -5.1329     
    O      3.7464         -1.1298         -2.6369     
    O     -2.6626         -0.8828         -0.6869     
    O     -2.9586         -0.2038         -3.0959     
    O     -2.9676          1.5332          0.9381     
    C     -1.6746          1.5472          1.5601     
    C     -1.7636          1.1602          3.0541     
    C     -2.5236          2.2152          3.9101     
    C     -1.3996          2.8342          4.7711     
    C     -0.4476          1.6292          4.9131     
    N      0.8864          1.9902          5.3661     
    C      1.4814          1.5802          6.5121     
    N      1.1004          0.7892          7.5331     
    C      1.9824          0.5592          8.5371     
    N      3.2114          1.1322          8.5671     
    C      3.6354          1.9452          7.5721     
    N      4.9164          2.5522          7.6041     
    C      2.7444          2.1512          6.5241     
    N      2.8294          2.8532          5.3881     
    C      1.7494          2.7432          4.7331     
    O     -0.4206          1.1382          3.5701     
    O     -1.8496          3.3012          6.0531     
    O     -3.4666          1.5852          4.7951     
    O     -4.3946          1.5952         -1.1689     
    O     -3.0116          3.6222         -0.6109     
    H     -0.1986         -2.0838         -0.6009     
    H      0.6594         -0.5138         -0.4799     
    H      2.1354         -2.5138         -1.2809     
    H      2.1574          0.1862         -2.3749     
    H      0.9764         -0.4558         -4.3639     
    H      2.5374         -3.1048         -4.1719     
    H      1.5734         -4.9858         -5.4249     
    H      0.3124         -5.5908         -7.4779     
    H     -1.4486         -4.1038         -8.3189     
    H     -3.7276         -1.1148         -8.4859     
    H     -2.6826         -2.3578         -9.0279     
    H     -0.9756         -1.7808         -4.7419     
    H      3.1754          0.1892         -5.0829     
    H      4.0924         -1.0308         -1.7549     
    H     -1.2336          2.5552          1.4821     
    H     -1.0176          0.8262          1.0471     
    H     -2.2116          0.1582          3.1661     
    H     -3.0346          2.9902          3.3121     
    H     -0.8936          3.6402          4.2101     
    H     -0.8896          0.8652          5.5731     
    H      1.6934         -0.1078          9.3421     
    H      5.2094          3.1532          6.8591     
    H      5.5324          2.3872          8.3751     
    H      1.5894          3.2232          3.7691     
    H     -2.4896          4.0012          5.9721     
    H     -4.1806          1.1712          4.3211     

